215	876
236	756
245	566
257	552
262	549
264	510
267	482
279	468
284	465
286	426
320	352
360	345
383	339
385	320
394	315
460	312
512	310
523	299
529	293
562	292
604	284
614	278
634	274
688	270
771	262
907	255
987	250
1046	240
